100 275494
33 48 65 55 7 25 20 19 92 50 89 49 68 72 99 36 18 97 53 6 30 17 69 51 12 40 2 82 85 21 87 95 75 61 42 8 38 70 59 94 64 77 56 3 16 5 86 41 98 66 88 52 23 79 26 91 67 47 44 81 35 83 71 90 54 11 96 58 24 29 32 39 10 45 27 13 80 93 73 31 63 28 76 22 62 4 37 14 43 34 15 100 1 9 74 60 78 57 46 84 
